3448.29
0 123 168 124 48 114 60 183 80 79 111 0
0 11 19 98 93 61 44 41 177 121 68 26 28 0
0 194 18 92 144 149 195 54 134 129 12 154 138 0
0 95 38 45 184 196 1 30 157 34 165 53 0
0 120 51 58 22 151 8 46 49 159 153 52 0
0 162 131 33 185 158 150 25 139 186 75 73 166 199 104 112 0
0 67 55 35 71 66 126 142 192 86 85 83 69 0
0 9 122 90 143 5 16 119 100 87 105 156 127 0
0 108 128 136 169 102 176 132 94 37 43 21 40 0
0 190 189 20 103 164 115 178 39 109 50 0
0 197 23 161 181 36 17 14 172 99 118 0
0 187 170 56 74 15 42 57 145 180 182 148 31 146 89 0
0 130 163 3 78 65 160 88 167 106 191 0
0 32 47 174 96 137 171 4 110 198 76 0
0 117 193 173 113 125 82 107 175 64 63 188 135 24 0
0 62 10 70 101 116 155 133 2 140 141 91 84 147 6 0
0 77 81 29 72 179 152 13 97 59 7 27 0
